38 8
1 748
5 763
1 615
3 789
1 86
4 7
6 47
7 908
5 727
1 541
3 341
3 591
6 898
6 530
1 980
5 856
6 791
3 606
3 698
2 980
5 461
4 359
4 126
6 953
1 579
7 178
5 556
4 851
1 381
1 954
2 46
5 75
3 550
5 586
2 880
1 243
6 673
3 988
